(declare-fun var0 () String)
(declare-fun var1 () String)
(declare-fun var2 () String)
(declare-fun var3 () String)
(declare-fun var4 () String)
(declare-fun var5 () String)
(declare-fun var6 () String)
(declare-fun var7 () String)
(declare-fun var8 () String)
(declare-fun var9 () String)
(declare-fun var10 () String)
(declare-fun var11 () String)
(declare-fun var12 () String)
(declare-fun var13 () String)
(declare-fun var14 () String)
(declare-fun var15 () String)
(declare-fun var16 () String)
(declare-fun var17 () String)
(declare-fun var18 () String)
(declare-fun var19 () String)
(declare-fun var20 () String)
(declare-fun var21 () String)
(declare-fun var22 () String)
(declare-fun var23 () String)
(declare-fun var24 () String)
(declare-fun var25 () String)
(declare-fun var26 () String)
(declare-fun var27 () String)
(declare-fun var28 () String)
(declare-fun var29 () String)
(declare-fun var30 () String)
(declare-fun var31 () String)
(declare-fun var32 () String)
(declare-fun var33 () String)
(declare-fun var34 () String)
(declare-fun var35 () String)
(declare-fun var36 () String)
(declare-fun var37 () String)
(declare-fun var38 () String)
(declare-fun var39 () String)
(declare-fun var40 () String)
(declare-fun var41 () String)
(declare-fun var42 () String)
(declare-fun var43 () String)
(declare-fun var44 () String)
(declare-fun var45 () String)
(declare-fun var46 () String)
(declare-fun var47 () String)
(declare-fun var48 () String)
(declare-fun var49 () String)
(declare-fun var50 () String)
(declare-fun var51 () String)
(declare-fun var52 () String)
(declare-fun var53 () String)
(declare-fun var54 () String)
(declare-fun var55 () String)
(declare-fun var56 () String)
(declare-fun var57 () String)
(declare-fun var58 () String)
(declare-fun var59 () String)
(declare-fun var60 () String)
(assert (= var0 (Concat var1 var2)))
(assert (= var2 (Concat var3 var4)))
(assert (= var4 (Concat var5 var6)))
(assert (= var6 (Concat var7 var8)))
(assert (= var8 (Concat var9 var10)))
(assert (= var10 (Concat var11 var12)))
(assert (= var12 (Concat var13 var14)))
(assert (= var14 (Concat var15 var16)))
(assert (= var16 (Concat var17 var18)))
(assert (= var18 (Concat var19 var20)))
(assert (= var20 (Concat var21 var22)))
(assert (= var22 (Concat var23 var24)))
(assert (= var24 (Concat var25 var26)))
(assert (= var26 (Concat var27 var28)))
(assert (= var28 (Concat var29 var30)))
(assert (= var30 (Concat var31 var32)))
(assert (= var32 (Concat var33 var34)))
(assert (= var34 (Concat var35 var36)))
(assert (= var36 (Concat var37 var38)))
(assert (= var38 (Concat var39 var40)))
(assert (= var40 (Concat var41 var42)))
(assert (= var42 (Concat var43 var44)))
(assert (= var44 (Concat var45 var46)))
(assert (= var46 (Concat var47 var48)))
(assert (= var48 (Concat var49 var50)))
(assert (= var50 (Concat var51 var52)))
(assert (= var52 (Concat var53 var54)))
(assert (= var54 (Concat var55 var56)))
(assert (= var56 (Concat var57 var58)))
(assert (= var58 (Concat var59 var60)))
(assert (= var0 "solution"))
(assert (= "S" (CharAt var9 521)))
(assert (= "2" (CharAt var48 348)))
(assert (= "0" (CharAt var27 157)))
(assert (= "/" (CharAt var17 702)))
(assert (= "." (CharAt var36 979)))
(assert (= "9" (CharAt var30 116)))
(assert (= "@" (CharAt var28 649)))
(assert (= "c" (CharAt var54 314)))
(assert (= "C" (CharAt var53 452)))
(assert (= "z" (CharAt var14 246)))
(assert (= "`" (CharAt var59 610)))
(assert (= "@" (CharAt var36 57)))
(assert (= "`" (CharAt var27 876)))
(assert (= "=" (CharAt var12 208)))
(assert (= "d" (CharAt var58 58)))
(assert (= "Z" (CharAt var41 633)))
(assert (= "\\" (CharAt var32 662)))
(assert (= "*" (CharAt var7 385)))
(assert (= "h" (CharAt var1 602)))
(assert (= "/" (CharAt var16 843)))
(assert (= "<" (CharAt var17 260)))
(assert (= "4" (CharAt var56 357)))
(assert (= "{" (CharAt var13 304)))
(assert (= "^" (CharAt var35 290)))
(assert (= "9" (CharAt var13 623)))
(assert (= "U" (CharAt var38 183)))
(assert (= "0" (CharAt var5 407)))
(assert (= "T" (CharAt var32 2)))
(assert (= "\"" (CharAt var42 204)))
(assert (= "7" (CharAt var27 233)))
(assert (= "*" (CharAt var31 250)))
(assert (= "'" (CharAt var60 602)))
(assert (= "I" (CharAt var46 725)))
(assert (= "7" (CharAt var50 61)))
(assert (= "q" (CharAt var18 86)))
(assert (= "6" (CharAt var2 57)))
(assert (= "w" (CharAt var56 966)))
(assert (= "<" (CharAt var49 962)))
(assert (= "p" (CharAt var30 712)))
(assert (= ")" (CharAt var20 2)))
(assert (= "6" (CharAt var28 85)))
(assert (= "o" (CharAt var15 767)))
(assert (= "`" (CharAt var51 124)))
(assert (= "x" (CharAt var13 225)))
(assert (= "2" (CharAt var17 442)))
(assert (= "N" (CharAt var35 562)))
(assert (= "d" (CharAt var35 870)))
(assert (= "*" (CharAt var44 191)))
(assert (= "V" (CharAt var45 946)))
(assert (= "," (CharAt var25 520)))
(assert (= "~" (CharAt var20 536)))
(assert (= "f" (CharAt var56 944)))
(assert (= "g" (CharAt var36 281)))
(assert (= "P" (CharAt var25 884)))
(assert (= "j" (CharAt var39 697)))
(assert (= "K" (CharAt var42 894)))
(assert (= "^" (CharAt var34 277)))
(assert (= "~" (CharAt var47 127)))
(assert (= "T" (CharAt var30 674)))
(assert (= "[" (CharAt var60 58)))
(assert (= "W" (CharAt var12 388)))
(assert (= "M" (CharAt var31 155)))
(assert (= ":" (CharAt var34 759)))
(assert (= "5" (CharAt var26 257)))
(assert (= "B" (CharAt var44 348)))
(assert (= "T" (CharAt var57 818)))
(assert (= "!" (CharAt var31 589)))
(assert (= "v" (CharAt var25 166)))
(assert (= "%" (CharAt var59 971)))
(assert (= "_" (CharAt var44 681)))
(assert (= "R" (CharAt var26 634)))
(assert (= "d" (CharAt var6 302)))
(assert (= "," (CharAt var7 651)))
(assert (= "m" (CharAt var7 751)))
(assert (= "#" (CharAt var38 479)))
(assert (= "U" (CharAt var9 977)))
(assert (= "C" (CharAt var36 891)))
(assert (= "X" (CharAt var23 48)))
(assert (= "o" (CharAt var15 404)))
(assert (= "x" (CharAt var54 218)))
(assert (= "0" (CharAt var17 830)))
(assert (= ")" (CharAt var51 649)))
(assert (= "X" (CharAt var34 18)))
(assert (= "l" (CharAt var60 227)))
(assert (= "!" (CharAt var60 687)))
(assert (= "(" (CharAt var0 191)))
(assert (= "h" (CharAt var45 971)))
(assert (= "6" (CharAt var11 555)))
(assert (= "T" (CharAt var54 953)))
(assert (= "h" (CharAt var50 163)))
(assert (= "1" (CharAt var21 922)))
(assert (= "@" (CharAt var11 795)))
(assert (= "<" (CharAt var42 477)))
(assert (= "`" (CharAt var55 623)))
(assert (= "S" (CharAt var9 164)))
(assert (= "=" (CharAt var26 107)))
(assert (= "o" (CharAt var10 554)))
(assert (= "V" (CharAt var7 202)))
(assert (= "T" (CharAt var41 378)))
(assert (= "f" (CharAt var12 547)))
(assert (= "0" (CharAt var33 226)))
(assert (= "#" (CharAt var23 293)))
(assert (= "I" (CharAt var25 911)))
(assert (= "Y" (CharAt var29 522)))
(assert (= "N" (CharAt var16 278)))
(assert (= "-" (CharAt var18 582)))
(assert (= ")" (CharAt var59 786)))
(assert (= "^" (CharAt var48 237)))
(assert (= "u" (CharAt var25 779)))
(assert (= "Z" (CharAt var47 957)))
(assert (= "V" (CharAt var48 793)))
(assert (= "6" (CharAt var58 891)))
(assert (= "g" (CharAt var47 150)))
(assert (= "W" (CharAt var24 110)))
(assert (= "p" (CharAt var33 720)))
(assert (= "L" (CharAt var41 825)))
(assert (= "r" (CharAt var9 300)))
(assert (= "Y" (CharAt var60 673)))
(assert (= "E" (CharAt var1 858)))
(assert (= "$" (CharAt var29 898)))
(assert (= "+" (CharAt var40 516)))
(assert (= "0" (CharAt var25 29)))
(assert (= "^" (CharAt var40 201)))
(assert (= "r" (CharAt var5 176)))
(assert (= "U" (CharAt var38 790)))
(assert (= "[" (CharAt var25 116)))
(assert (= "~" (CharAt var56 919)))
(assert (= "v" (CharAt var2 137)))
(assert (= "." (CharAt var35 553)))
(assert (= "E" (CharAt var43 960)))
(assert (= ">" (CharAt var36 216)))
(assert (= "z" (CharAt var49 243)))
(assert (= "&" (CharAt var43 655)))
(assert (= "A" (CharAt var27 279)))
(assert (= "M" (CharAt var56 719)))
(assert (= "h" (CharAt var26 760)))
(assert (= ")" (CharAt var47 26)))
(assert (= "-" (CharAt var24 673)))
(assert (= "D" (CharAt var12 446)))
(assert (= "M" (CharAt var23 77)))
(assert (= "x" (CharAt var45 759)))
(assert (= "~" (CharAt var55 813)))
(assert (= "8" (CharAt var32 736)))
(assert (= "]" (CharAt var25 223)))
(assert (= "B" (CharAt var54 81)))
(assert (= "F" (CharAt var18 889)))
(assert (= "d" (CharAt var20 716)))
(assert (= "4" (CharAt var58 645)))
(assert (= "c" (CharAt var20 764)))
(assert (= "R" (CharAt var34 832)))
(assert (= "^" (CharAt var42 259)))
(assert (= "g" (CharAt var35 199)))
(assert (= "J" (CharAt var36 893)))
(assert (= "M" (CharAt var1 978)))
(assert (= "e" (CharAt var14 907)))
(assert (= "$" (CharAt var18 554)))
(assert (= "^" (CharAt var36 134)))
(assert (= "$" (CharAt var34 44)))
(assert (= "+" (CharAt var4 959)))
(assert (= "$" (CharAt var52 244)))
(assert (= "p" (CharAt var5 246)))
(assert (= "y" (CharAt var37 480)))
(assert (= "K" (CharAt var56 255)))
(assert (= "Z" (CharAt var8 583)))
(assert (= "/" (CharAt var21 947)))
(assert (= "1" (CharAt var40 195)))
(assert (= "]" (CharAt var17 5)))
(assert (= "w" (CharAt var52 331)))
(assert (= "H" (CharAt var40 414)))
(assert (= "(" (CharAt var18 769)))
(assert (= "a" (CharAt var45 659)))
(assert (= "4" (CharAt var56 257)))
(assert (= "." (CharAt var47 856)))
(assert (= "!" (CharAt var1 390)))
(assert (= "u" (CharAt var34 914)))
(assert (= "6" (CharAt var58 200)))
(assert (= "A" (CharAt var18 240)))
(assert (= "S" (CharAt var13 739)))
(assert (= "y" (CharAt var28 648)))
(assert (= "|" (CharAt var6 781)))
(assert (= "N" (CharAt var8 860)))
(assert (= "r" (CharAt var3 545)))
(assert (= "|" (CharAt var45 268)))
(assert (= "%" (CharAt var42 824)))
(assert (= "u" (CharAt var6 821)))
(assert (= "!" (CharAt var39 918)))
(assert (= "4" (CharAt var0 590)))
(assert (= ")" (CharAt var43 411)))
(assert (= "7" (CharAt var0 757)))
(assert (= "A" (CharAt var21 238)))
(assert (= "p" (CharAt var59 887)))
(assert (= "*" (CharAt var50 429)))
(assert (= "Y" (CharAt var51 556)))
(assert (= ">" (CharAt var50 596)))
(assert (= "(" (CharAt var7 943)))
(assert (= "+" (CharAt var11 863)))
(assert (= "=" (CharAt var27 131)))
(assert (= "\"" (CharAt var53 324)))
(assert (= "C" (CharAt var50 617)))
(assert (= "c" (CharAt var59 895)))
(assert (= "j" (CharAt var26 670)))
(assert (= "R" (CharAt var58 502)))
(assert (= "[" (CharAt var25 684)))
(assert (= "0" (CharAt var10 394)))
(assert (= "7" (CharAt var33 134)))
(assert (= "X" (CharAt var39 582)))
(assert (= "U" (CharAt var53 243)))
(assert (= "$" (CharAt var53 496)))
(assert (= "%" (CharAt var1 330)))
(assert (= "_" (CharAt var29 583)))
(assert (= "S" (CharAt var50 776)))
(assert (= "m" (CharAt var41 381)))
(assert (= "&" (CharAt var1 515)))
(assert (= "A" (CharAt var58 903)))
(assert (= "F" (CharAt var29 939)))
(assert (= "#" (CharAt var21 837)))
(assert (= "j" (CharAt var17 881)))
(assert (= "\\" (CharAt var49 873)))
(assert (= "P" (CharAt var42 815)))
(assert (= "X" (CharAt var59 383)))
(assert (= "{" (CharAt var0 37)))
(assert (= "Q" (CharAt var44 455)))
(assert (= "O" (CharAt var58 848)))
(assert (= "I" (CharAt var26 749)))
(assert (= "R" (CharAt var11 2)))
(assert (= ")" (CharAt var37 120)))
(assert (= "?" (CharAt var2 282)))
(assert (= "d" (CharAt var35 139)))
(assert (= "~" (CharAt var30 563)))
(assert (= ";" (CharAt var5 719)))
(assert (= "1" (CharAt var38 385)))
(assert (= "," (CharAt var28 259)))
(assert (= "\"" (CharAt var22 490)))
(assert (= "u" (CharAt var60 260)))
(assert (= "e" (CharAt var16 782)))
(assert (= "F" (CharAt var23 851)))
(assert (= "\"" (CharAt var30 301)))
(assert (= "Q" (CharAt var10 134)))
(assert (= "0" (CharAt var44 989)))
(assert (= "?" (CharAt var34 484)))
(assert (= "w" (CharAt var55 726)))
(assert (= "B" (CharAt var26 835)))
(assert (= "0" (CharAt var42 343)))
(assert (= "=" (CharAt var5 999)))
(assert (= "O" (CharAt var2 767)))
(assert (= "M" (CharAt var13 967)))
(assert (= "1" (CharAt var59 200)))
(assert (= "Q" (CharAt var59 725)))
(assert (= "c" (CharAt var57 682)))
(assert (= "6" (CharAt var30 837)))
(assert (= "+" (CharAt var52 385)))
(assert (= "5" (CharAt var21 360)))
(assert (= "x" (CharAt var48 319)))
(assert (= "," (CharAt var10 924)))
(assert (= "R" (CharAt var8 667)))
(assert (= "D" (CharAt var29 849)))
(assert (= "}" (CharAt var54 122)))
(assert (= "6" (CharAt var15 515)))
(assert (= "{" (CharAt var49 613)))
(assert (= "g" (CharAt var39 45)))
(assert (= "7" (CharAt var9 102)))
(assert (= "y" (CharAt var24 344)))
(assert (= "n" (CharAt var50 473)))
(assert (= "c" (CharAt var60 900)))
(assert (= "u" (CharAt var34 34)))
(assert (= "a" (CharAt var48 916)))
(assert (= "#" (CharAt var21 304)))
(assert (= "7" (CharAt var50 555)))
(assert (= "I" (CharAt var49 432)))
(assert (= "#" (CharAt var23 734)))
(assert (= "2" (CharAt var27 205)))
(assert (= "!" (CharAt var9 136)))
(assert (= "D" (CharAt var25 182)))
(assert (= "a" (CharAt var21 453)))
(assert (= "N" (CharAt var26 802)))
(assert (= "_" (CharAt var33 305)))
(assert (= "p" (CharAt var21 82)))
(assert (= "s" (CharAt var50 405)))
(assert (= "V" (CharAt var42 61)))
(assert (= "," (CharAt var23 133)))
(assert (= "U" (CharAt var6 633)))
(assert (= "n" (CharAt var14 565)))
(assert (= "{" (CharAt var31 307)))
(assert (= "1" (CharAt var51 466)))
(assert (= "h" (CharAt var9 533)))
(assert (= "*" (CharAt var56 335)))
(assert (= "g" (CharAt var4 447)))
(assert (= "r" (CharAt var31 44)))
(assert (= "x" (CharAt var0 902)))
(assert (= "\"" (CharAt var2 277)))
(assert (= "c" (CharAt var2 707)))
(assert (= "[" (CharAt var57 600)))
(assert (= "!" (CharAt var24 216)))
(assert (= "I" (CharAt var27 753)))
(assert (= "b" (CharAt var28 370)))
(assert (= "z" (CharAt var48 18)))
(assert (= "e" (CharAt var29 238)))
(assert (= "W" (CharAt var50 38)))
(assert (= "'" (CharAt var29 540)))
(assert (= "1" (CharAt var12 982)))
(assert (= "r" (CharAt var50 906)))
(assert (= "-" (CharAt var11 28)))
(assert (= "_" (CharAt var29 57)))
(assert (= "B" (CharAt var36 741)))
(assert (= "l" (CharAt var27 82)))
(assert (= "@" (CharAt var50 790)))
(assert (= "f" (CharAt var50 947)))
(assert (= "3" (CharAt var26 410)))
(assert (= "q" (CharAt var60 141)))
(assert (= "d" (CharAt var19 535)))
(assert (= "J" (CharAt var60 554)))
(assert (= "x" (CharAt var3 793)))
(assert (= "W" (CharAt var59 71)))
(assert (= "C" (CharAt var18 92)))
(assert (= "0" (CharAt var0 230)))
(assert (= "*" (CharAt var60 909)))
(assert (= "J" (CharAt var49 722)))
(assert (= "}" (CharAt var19 341)))
(assert (= "$" (CharAt var59 717)))
(assert (= "x" (CharAt var43 437)))
(assert (= "n" (CharAt var17 129)))
(assert (= "u" (CharAt var31 249)))
(assert (= ";" (CharAt var52 484)))
(assert (= "R" (CharAt var47 397)))
(assert (= "F" (CharAt var0 192)))
(assert (= "k" (CharAt var11 837)))
(assert (= "7" (CharAt var60 594)))
(assert (= "j" (CharAt var35 645)))
(assert (= "~" (CharAt var24 523)))
(assert (= "]" (CharAt var47 889)))
(assert (= "2" (CharAt var43 766)))
(assert (= "E" (CharAt var0 771)))
(assert (= "?" (CharAt var58 229)))
(assert (= "^" (CharAt var54 941)))
(assert (= "f" (CharAt var40 208)))
(assert (= "Z" (CharAt var37 438)))
(assert (= "3" (CharAt var34 358)))
(assert (= "$" (CharAt var54 297)))
(assert (= "v" (CharAt var39 79)))
(assert (= "@" (CharAt var45 758)))
(assert (= "Q" (CharAt var29 730)))
(assert (= "*" (CharAt var31 150)))
(assert (= "r" (CharAt var18 593)))
(assert (= "Y" (CharAt var18 12)))
(assert (= "I" (CharAt var5 744)))
(assert (= "Y" (CharAt var43 887)))
(assert (= "&" (CharAt var15 398)))
(assert (= "E" (CharAt var10 76)))
(assert (= "C" (CharAt var14 123)))
(assert (= "d" (CharAt var9 343)))
(assert (= "_" (CharAt var57 431)))
(assert (= ":" (CharAt var17 929)))
(assert (= "2" (CharAt var19 159)))
(assert (= "0" (CharAt var43 991)))
(assert (= "$" (CharAt var46 504)))
(assert (= "'" (CharAt var40 284)))
(assert (= "A" (CharAt var14 526)))
(assert (= "k" (CharAt var53 816)))
(assert (= "D" (CharAt var45 636)))
(assert (= "t" (CharAt var50 658)))
(assert (= "{" (CharAt var10 239)))
(assert (= "^" (CharAt var39 916)))
(assert (= "z" (CharAt var44 672)))
(assert (= "M" (CharAt var56 421)))
(assert (= "}" (CharAt var46 273)))
(assert (= "(" (CharAt var58 131)))
(assert (= "v" (CharAt var8 372)))
(assert (= "S" (CharAt var27 282)))
(assert (= "^" (CharAt var37 216)))
(assert (= "[" (CharAt var7 140)))
(assert (= "q" (CharAt var44 224)))
(assert (= "\\" (CharAt var53 329)))
(assert (= "4" (CharAt var10 80)))
(assert (= "M" (CharAt var25 296)))
(assert (= "." (CharAt var4 459)))
(assert (= "~" (CharAt var47 842)))
(assert (= "#" (CharAt var51 57)))
(assert (= "X" (CharAt var54 488)))
(assert (= "x" (CharAt var36 38)))
(assert (= "Q" (CharAt var14 476)))
(assert (= "\\" (CharAt var52 118)))
(assert (= "7" (CharAt var32 345)))
(assert (= "i" (CharAt var39 860)))
(assert (= "~" (CharAt var23 124)))
(assert (= "n" (CharAt var59 917)))
(assert (= "=" (CharAt var27 467)))
(assert (= "@" (CharAt var25 69)))
(assert (= "f" (CharAt var56 417)))
(assert (= "^" (CharAt var28 458)))
(assert (= "@" (CharAt var11 616)))
(assert (= "S" (CharAt var29 768)))
(assert (= "a" (CharAt var9 181)))
(assert (= "Y" (CharAt var44 202)))
(assert (= ";" (CharAt var10 741)))
(assert (= "n" (CharAt var41 434)))
(assert (= "o" (CharAt var34 53)))
(assert (= "d" (CharAt var0 758)))
(assert (= "i" (CharAt var51 827)))
(assert (= "\\" (CharAt var52 386)))
(assert (= "M" (CharAt var14 724)))
(assert (= "b" (CharAt var40 428)))
(assert (= "Q" (CharAt var55 347)))
(assert (= "v" (CharAt var19 452)))
(assert (= "#" (CharAt var18 913)))
(assert (= "]" (CharAt var3 36)))
(assert (= ")" (CharAt var14 479)))
(assert (= "c" (CharAt var16 519)))
(assert (= "h" (CharAt var50 368)))
(assert (= "S" (CharAt var25 251)))
(assert (= "#" (CharAt var26 126)))
(assert (= "q" (CharAt var53 65)))
(assert (= "B" (CharAt var42 712)))
(assert (= "y" (CharAt var24 316)))
(assert (= "P" (CharAt var23 2)))
(assert (= "=" (CharAt var52 928)))
(assert (= "$" (CharAt var22 82)))
(assert (= "B" (CharAt var53 996)))
(assert (= "Q" (CharAt var58 449)))
(assert (= "n" (CharAt var7 726)))
(assert (= "x" (CharAt var13 546)))
(assert (= "k" (CharAt var3 855)))
(assert (= "j" (CharAt var15 229)))
(assert (= "-" (CharAt var1 71)))
(assert (= "[" (CharAt var39 383)))
(assert (= "y" (CharAt var27 287)))
(assert (= "b" (CharAt var33 162)))
(assert (= "G" (CharAt var11 758)))
(assert (= "{" (CharAt var43 139)))
(assert (= "|" (CharAt var47 687)))
(assert (= "v" (CharAt var14 42)))
(assert (= ")" (CharAt var2 875)))
(assert (= "_" (CharAt var54 693)))
(assert (= "_" (CharAt var4 247)))
(assert (= "y" (CharAt var36 16)))
(assert (= "F" (CharAt var28 596)))
(assert (= "s" (CharAt var31 892)))
(assert (= "O" (CharAt var17 347)))
(assert (= "'" (CharAt var44 335)))
(assert (= "{" (CharAt var22 583)))
(assert (= "b" (CharAt var27 894)))
(assert (= "t" (CharAt var7 444)))
(assert (= "k" (CharAt var22 229)))
(assert (= "o" (CharAt var45 980)))
(assert (= "[" (CharAt var37 78)))
(assert (= "=" (CharAt var33 325)))
(assert (= "<" (CharAt var3 134)))
(assert (= "\\" (CharAt var51 901)))
(assert (= "B" (CharAt var55 752)))
(assert (= "^" (CharAt var57 387)))
(assert (= "`" (CharAt var44 360)))
(assert (= "p" (CharAt var28 593)))
(assert (= "E" (CharAt var32 451)))
(assert (= "K" (CharAt var37 805)))
(assert (= "n" (CharAt var1 236)))
(assert (= "P" (CharAt var32 800)))
(assert (= "4" (CharAt var28 564)))
(assert (= "8" (CharAt var5 835)))
(assert (= "'" (CharAt var25 731)))
(assert (= "&" (CharAt var52 526)))
(assert (= "#" (CharAt var19 800)))
(assert (= "t" (CharAt var58 222)))
(assert (= "C" (CharAt var18 369)))
(assert (= "-" (CharAt var30 170)))
(assert (= "E" (CharAt var19 782)))
(assert (= "!" (CharAt var5 568)))
(assert (= "H" (CharAt var57 138)))
(assert (= "k" (CharAt var26 971)))
(assert (= "*" (CharAt var47 717)))
(assert (= "-" (CharAt var26 246)))
(assert (= "\\" (CharAt var44 557)))
(assert (= "h" (CharAt var51 619)))
(assert (= "Q" (CharAt var5 271)))
(assert (= "/" (CharAt var5 348)))
(assert (= "F" (CharAt var21 246)))
(assert (= "n" (CharAt var45 762)))
(assert (= "W" (CharAt var41 736)))
(assert (= "`" (CharAt var0 562)))
(assert (= "T" (CharAt var38 996)))
(assert (= "{" (CharAt var27 574)))
(assert (= "J" (CharAt var55 957)))
(assert (= "3" (CharAt var7 801)))
(assert (= "b" (CharAt var59 904)))
(assert (= "v" (CharAt var51 585)))
(assert (= "H" (CharAt var31 923)))
(assert (= "z" (CharAt var60 949)))
(assert (= "U" (CharAt var31 650)))
(assert (= "k" (CharAt var58 333)))
(assert (= "p" (CharAt var37 942)))
(assert (= "." (CharAt var17 206)))
(assert (= "-" (CharAt var45 242)))
(assert (= "K" (CharAt var14 965)))
(assert (= "J" (CharAt var10 171)))
(assert (= "+" (CharAt var57 783)))
(assert (= "%" (CharAt var47 689)))
(assert (= "]" (CharAt var53 43)))
(assert (= "6" (CharAt var12 222)))
(assert (= "I" (CharAt var24 817)))
(assert (= "Z" (CharAt var22 216)))
(assert (= "'" (CharAt var57 708)))
(assert (= "\\" (CharAt var40 262)))
(assert (= "8" (CharAt var23 657)))
(assert (= "k" (CharAt var26 587)))
(assert (= "W" (CharAt var19 923)))
(assert (= "$" (CharAt var17 398)))
(assert (= "C" (CharAt var49 312)))
(assert (= "C" (CharAt var45 176)))
(assert (= "a" (CharAt var40 730)))
(assert (= "+" (CharAt var23 248)))
(assert (= "Q" (CharAt var48 445)))
(assert (= "l" (CharAt var58 371)))
(assert (= "_" (CharAt var17 217)))
(assert (= "j" (CharAt var7 605)))
(assert (= "b" (CharAt var44 193)))
(assert (= "f" (CharAt var36 809)))
(assert (= "T" (CharAt var37 769)))
(assert (= "t" (CharAt var15 518)))
(assert (= "o" (CharAt var11 572)))
(assert (= "U" (CharAt var1 922)))
(assert (= "U" (CharAt var38 833)))
(assert (= "2" (CharAt var20 566)))
(assert (= "<" (CharAt var44 63)))
(assert (= "R" (CharAt var56 737)))
(assert (= "J" (CharAt var25 335)))
(assert (= "H" (CharAt var55 387)))
(assert (= "'" (CharAt var36 365)))
(assert (= "X" (CharAt var43 392)))
(assert (= "u" (CharAt var53 971)))
(assert (= "2" (CharAt var60 654)))
(assert (= "L" (CharAt var25 330)))
(assert (= "Z" (CharAt var35 810)))
(assert (= "p" (CharAt var27 89)))
(assert (= "O" (CharAt var16 468)))
(assert (= "M" (CharAt var31 713)))
(assert (= "J" (CharAt var50 729)))
(assert (= "3" (CharAt var11 537)))
(assert (= "s" (CharAt var35 474)))
(assert (= "c" (CharAt var38 784)))
(assert (= ";" (CharAt var54 946)))
(assert (= "n" (CharAt var36 744)))
(assert (= "f" (CharAt var55 817)))
(assert (= "<" (CharAt var23 388)))
(assert (= "\\" (CharAt var51 811)))
(assert (= "/" (CharAt var28 749)))
(assert (= "?" (CharAt var51 382)))
(assert (= "#" (CharAt var43 982)))
(assert (= ">" (CharAt var18 750)))
(assert (= "q" (CharAt var32 188)))
(assert (= "9" (CharAt var5 800)))
(assert (= "h" (CharAt var35 224)))
(assert (= "S" (CharAt var5 167)))
(assert (= "!" (CharAt var17 876)))
(assert (= "'" (CharAt var29 117)))
(assert (= "9" (CharAt var43 381)))
(assert (= "@" (CharAt var13 903)))
(assert (= "V" (CharAt var1 499)))
(assert (= ";" (CharAt var20 956)))
(assert (= "S" (CharAt var7 193)))
(assert (= "r" (CharAt var8 424)))
(assert (= "k" (CharAt var47 257)))
(assert (= "E" (CharAt var60 31)))
(assert (= "6" (CharAt var58 552)))
(assert (= "q" (CharAt var57 193)))
(assert (= "?" (CharAt var53 917)))
(assert (= "W" (CharAt var39 583)))
(assert (= "X" (CharAt var14 896)))
(assert (= "/" (CharAt var29 428)))
(assert (= "g" (CharAt var57 7)))
(assert (= "%" (CharAt var22 726)))
(assert (= "J" (CharAt var55 963)))
(assert (= "F" (CharAt var14 115)))
(assert (= "o" (CharAt var52 562)))
(assert (= "H" (CharAt var17 554)))
(assert (= "M" (CharAt var2 128)))
(assert (= "e" (CharAt var58 907)))
(assert (= "S" (CharAt var9 645)))
(assert (= "/" (CharAt var16 596)))
(assert (= "t" (CharAt var21 805)))
(assert (= ">" (CharAt var42 187)))
(assert (= "t" (CharAt var35 386)))
(assert (= "{" (CharAt var22 539)))
(assert (= "\\" (CharAt var16 364)))
(assert (= "Q" (CharAt var15 795)))
(assert (= "N" (CharAt var49 385)))
(assert (= "R" (CharAt var2 579)))
(assert (= "<" (CharAt var42 308)))
(assert (= "'" (CharAt var47 878)))
(assert (= "S" (CharAt var59 401)))
(assert (= "&" (CharAt var59 742)))
(assert (= ":" (CharAt var23 504)))
(assert (= "F" (CharAt var15 634)))
(assert (= "&" (CharAt var22 697)))
(assert (= "(" (CharAt var54 595)))
(assert (= "9" (CharAt var10 758)))
(assert (= "2" (CharAt var29 964)))
(assert (= "\"" (CharAt var31 842)))
(assert (= "%" (CharAt var15 158)))
(assert (= "7" (CharAt var24 645)))
(assert (= "@" (CharAt var22 180)))
(assert (= "v" (CharAt var46 570)))
(assert (= "4" (CharAt var50 801)))
(assert (= "p" (CharAt var15 447)))
(assert (= "L" (CharAt var55 566)))
(assert (= "\\" (CharAt var19 591)))
(assert (= "O" (CharAt var11 815)))
(assert (= "f" (CharAt var23 415)))
(assert (= "V" (CharAt var17 685)))
(assert (= "w" (CharAt var32 664)))
(assert (= "g" (CharAt var53 596)))
(assert (= "5" (CharAt var31 479)))
(assert (= "0" (CharAt var5 243)))
(assert (= "5" (CharAt var25 288)))
(assert (= "T" (CharAt var11 778)))
(assert (= "8" (CharAt var30 815)))
(assert (= "t" (CharAt var33 25)))
(assert (= ":" (CharAt var25 897)))
(assert (= "k" (CharAt var19 312)))
(assert (= "}" (CharAt var7 879)))
(assert (= "%" (CharAt var2 979)))
(assert (= "~" (CharAt var31 269)))
(assert (= "x" (CharAt var50 442)))
(assert (= "^" (CharAt var43 184)))
(assert (= "z" (CharAt var38 871)))
(assert (= "E" (CharAt var6 300)))
(assert (= "d" (CharAt var29 524)))
(assert (= "n" (CharAt var8 175)))
(assert (= "2" (CharAt var33 754)))
(assert (= "j" (CharAt var21 440)))
(assert (= "Z" (CharAt var33 360)))
(assert (= "P" (CharAt var30 990)))
(assert (= "9" (CharAt var51 197)))
(assert (= "v" (CharAt var59 379)))
(assert (= "\"" (CharAt var48 469)))
(assert (= "N" (CharAt var5 901)))
(assert (= "X" (CharAt var39 870)))
(assert (= "x" (CharAt var52 531)))
(assert (= "?" (CharAt var10 208)))
(assert (= "M" (CharAt var57 260)))
(assert (= "Z" (CharAt var10 595)))
(assert (= "N" (CharAt var40 975)))
(assert (= "?" (CharAt var4 646)))
(assert (= "*" (CharAt var1 649)))
(assert (= "J" (CharAt var40 854)))
(assert (= "," (CharAt var31 136)))
(assert (= "}" (CharAt var50 779)))
(assert (= ";" (CharAt var27 592)))
(assert (= "X" (CharAt var10 880)))
(assert (= "?" (CharAt var15 710)))
(assert (= "$" (CharAt var6 945)))
(assert (= "B" (CharAt var20 189)))
(assert (= "|" (CharAt var36 71)))
(assert (= "H" (CharAt var11 706)))
(assert (= "c" (CharAt var46 102)))
(assert (= "i" (CharAt var26 38)))
(assert (= "^" (CharAt var41 727)))
(assert (= "u" (CharAt var34 369)))
(assert (= "H" (CharAt var60 710)))
(assert (= "3" (CharAt var15 418)))
(assert (= "i" (CharAt var42 830)))
(assert (= "a" (CharAt var17 356)))
(assert (= "R" (CharAt var4 848)))
(assert (= "i" (CharAt var20 810)))
(assert (= "b" (CharAt var25 146)))
(assert (= "3" (CharAt var13 350)))
(assert (= "N" (CharAt var7 786)))
(assert (= "5" (CharAt var41 260)))
(assert (= "d" (CharAt var55 173)))
(assert (= "-" (CharAt var57 390)))
(assert (= "7" (CharAt var29 21)))
(assert (= "y" (CharAt var52 194)))
(assert (= "x" (CharAt var23 963)))
(assert (= "4" (CharAt var59 358)))
(assert (= ">" (CharAt var54 869)))
(assert (= "b" (CharAt var33 776)))
(assert (= "n" (CharAt var9 637)))
(assert (= "e" (CharAt var22 426)))
(assert (= "s" (CharAt var2 188)))
(assert (= "y" (CharAt var20 942)))
(assert (= "6" (CharAt var36 468)))
(assert (= "j" (CharAt var52 775)))
(assert (= "V" (CharAt var24 809)))
(assert (= "w" (CharAt var15 723)))
(assert (= "j" (CharAt var39 27)))
(assert (= "R" (CharAt var52 924)))
(assert (= "0" (CharAt var20 751)))
(assert (= "E" (CharAt var33 696)))
(assert (= "3" (CharAt var26 87)))
(assert (= "]" (CharAt var4 495)))
(assert (= "8" (CharAt var11 676)))
(assert (= "N" (CharAt var7 255)))
(assert (= "P" (CharAt var3 180)))
(assert (= "C" (CharAt var36 618)))
(assert (= "`" (CharAt var58 627)))
(assert (= "a" (CharAt var16 823)))
(assert (= "6" (CharAt var5 410)))
(assert (= "[" (CharAt var9 334)))
(assert (= "|" (CharAt var21 448)))
(assert (= "E" (CharAt var26 776)))
(assert (= "D" (CharAt var58 47)))
(assert (= "4" (CharAt var39 214)))
(assert (= "9" (CharAt var42 686)))
(assert (= "3" (CharAt var37 106)))
(assert (= "&" (CharAt var4 986)))
(assert (= "n" (CharAt var55 801)))
(assert (= "6" (CharAt var14 187)))
(assert (= "'" (CharAt var56 971)))
(assert (= "|" (CharAt var15 601)))
(assert (= "u" (CharAt var1 162)))
(assert (= "," (CharAt var26 335)))
(assert (= ":" (CharAt var60 187)))
(assert (= "9" (CharAt var51 754)))
(assert (= "}" (CharAt var33 189)))
(assert (= "b" (CharAt var3 153)))
(assert (= "s" (CharAt var13 755)))
(assert (= "#" (CharAt var42 566)))
(assert (= "B" (CharAt var12 306)))
(assert (= "x" (CharAt var33 64)))
(assert (= "&" (CharAt var37 916)))
(assert (= "D" (CharAt var49 207)))
(assert (= "%" (CharAt var26 417)))
(assert (= "|" (CharAt var23 412)))
(assert (= "n" (CharAt var53 634)))
(check-sat)